\ENCODING=ISO-8859-1
\Problem name: IloCplex

Maximize
 obj1: 52 x1 - 12 x2 - 10 x3 - 2 x4
Subject To
 c1:  13 x1 + 450 x2 + 98 x3 + 494 x4 <= 0
 c2:  5 x1 + 171 x2 + 465 x3 + 237 x4 <= 0
 c3:  5 x1 + 947 x2 + 492 x3 + 818 x4 <= 0
 c4:  9 x1 + 670 x2 + 435 x3 + 340 x4 <= 0
 c5:  10 x1 + 774 x2 + 822 x3 + 621 x4 <= 0
 c6:  11 x1 + 523 x2 + 599 x3 + 270 x4 <= 0
 c7:  14 x1 + 427 x2 + 631 x3 + 357 x4 <= 0
 c8:  15 x1 + 901 x2 + 386 x3 + 125 x4 <= 0
 c9:  12 x1 + 288 x2 + 369 x3 + 80 x4 <= 0
 c10: 10 x1 + 367 x2 + 994 x3 + 811 x4 <= 0
 c11: x2 + x3 + x4  = 1
Bounds
 -Inf <= x1 <= 0
End
